solution status: gap limit reached
objective value:                          45603.87056
y#1                                                 1 	(obj:5700)
y#6                                                 1 	(obj:5700)
y#7                                                 1 	(obj:5700)
y#9                                                 1 	(obj:5700)
y#24                                                1 	(obj:5700)
y#27                                                1 	(obj:5700)
y#36                                                1 	(obj:5700)
y#60                                                1 	(obj:5700)
x#1#6                                               1 	(obj:0.00714)
x#2#1                                               1 	(obj:0.02448)
x#3#9                                               1 	(obj:0.01479)
x#4#36                                              1 	(obj:0.02941)
x#5#36                                              1 	(obj:0.00986)
x#6#7                                               1 	(obj:0.00595)
x#7#27                                              1 	(obj:0.04947)
x#8#7                                               1 	(obj:0.03825)
x#9#27                                              1 	(obj:0.04267)
x#10#27                                             1 	(obj:0.06273)
x#11#36                                             1 	(obj:0.05542)
x#12#7                                              1 	(obj:0.03995)
x#13#9                                              1 	(obj:0.03383)
x#14#24                                             1 	(obj:0.04131)
x#15#9                                              1 	(obj:0.02448)
x#16#24                                             1 	(obj:0.00833)
x#17#7                                              1 	(obj:0.04573)
x#18#36                                             1 	(obj:0.00204)
x#19#24                                             1 	(obj:0.03383)
x#20#1                                              1 	(obj:0.04131)
x#21#36                                             1 	(obj:0.04301)
x#22#1                                              1 	(obj:0.05117)
x#23#36                                             1 	(obj:0.04658)
x#24#9                                              1 	(obj:0.04828)
x#25#9                                              1 	(obj:0.04284)
x#26#24                                             1 	(obj:0.01224)
x#27#9                                              1 	(obj:0.04165)
x#28#27                                             1 	(obj:0.04675)
x#29#6                                              1 	(obj:0.03094)
x#30#60                                             1 	(obj:0.12087)
x#31#24                                             1 	(obj:0.01224)
x#32#6                                              1 	(obj:0.00646)
x#33#9                                              1 	(obj:0.04692)
x#34#1                                              1 	(obj:0.00901)
x#35#1                                              1 	(obj:0.03995)
x#36#6                                              1 	(obj:0.02397)
x#37#9                                              1 	(obj:0.02261)
x#38#6                                              1 	(obj:0.02516)
x#39#9                                              1 	(obj:0.04063)
x#40#1                                              1 	(obj:0.04148)
x#41#60                                             1 	(obj:0.06392)
x#42#7                                              1 	(obj:0.02057)
x#43#7                                              1 	(obj:0.03179)
x#44#60                                             1 	(obj:0.07412)
x#45#6                                              1 	(obj:0.03774)
x#46#60                                             1 	(obj:0.15045)
x#47#36                                             1 	(obj:0.01071)
x#48#6                                              1 	(obj:0.05644)
x#49#1                                              1 	(obj:0.0238)
x#50#24                                             1 	(obj:0.03247)
x#51#27                                             1 	(obj:0.04454)
x#52#7                                              1 	(obj:0.03315)
x#53#6                                              1 	(obj:0.06324)
x#54#1                                              1 	(obj:0.04998)
x#55#27                                             1 	(obj:0.14093)
x#56#24                                             1 	(obj:0.03655)
x#57#27                                             1 	(obj:0.02091)
x#58#36                                             1 	(obj:0.04267)
x#59#60                                             1 	(obj:0.14433)
x#60#9                                              1 	(obj:0.02941)
x#61#7                                              1 	(obj:0.03774)
x#62#27                                             1 	(obj:0.02295)
x#63#6                                              1 	(obj:0.01343)
x#64#36                                             1 	(obj:0.04182)
x#65#36                                             1 	(obj:0.03145)
x#66#60                                             1 	(obj:0.08007)
x#67#7                                              1 	(obj:0.02856)
x#68#7                                              1 	(obj:0.03723)
x#69#24                                             1 	(obj:0.03638)
x#70#7                                              1 	(obj:0.00629)
x#71#60                                             1 	(obj:0.09639)
x#72#60                                             1 	(obj:0.08296)
x#73#24                                             1 	(obj:0.0255)
x#74#6                                              1 	(obj:0.04505)
x#75#36                                             1 	(obj:0.05321)
x#76#60                                             1 	(obj:0.1496)
x#77#1                                              1 	(obj:0.05508)
x#78#24                                             1 	(obj:0.02822)
x#79#7                                              1 	(obj:0.03723)
x#80#36                                             1 	(obj:0.05032)
x#81#1                                              1 	(obj:0.03315)
x#82#24                                             1 	(obj:0.04301)
x#83#27                                             1 	(obj:0.02907)
x#84#6                                              1 	(obj:0.02346)
x#85#9                                              1 	(obj:0.06018)
x#86#60                                             1 	(obj:0.12869)
x#87#27                                             1 	(obj:0.00697)
x#88#27                                             1 	(obj:0.05066)
x#89#6                                              1 	(obj:0.02261)
x#90#1                                              1 	(obj:0.04182)
